(set-info :smt-lib-version 2.6)
(set-info :category "crafted")
(set-logic QF_FF)
(define-sort FF0 () (_ FiniteField 52435875175126190479447740508185965837690552500527637822603658699938581184513))
(declare-fun b () Bool)
(declare-fun a () Bool)
(declare-fun out () FF0)
(declare-fun _2 () FF0)
(declare-fun _1 () FF0)
(declare-fun _0 () FF0)
(assert 
  (let ((let0 b))
  (let ((let1 a))
  (let ((let2 (and let1 let0)))
  (let ((let3 out))
  (let ((let4 (as ff1 FF0)))
  (let ((let5 (= let4 let3)))
  (let ((let6 (= let5 let2)))
  (let ((let7 (as ff0 FF0)))
  (let ((let8 (= let7 let3)))
  (let ((let9 (or let5 let8)))
  (let ((let10 (and let9 let6)))
  (let ((let11 _2))
  (let ((let12 (= let11 let3)))
  (let ((let13 _1))
  (let ((let14 _0))
  (let ((let15 (ff.mul let14 let13)))
  (let ((let16 (= let15 let11)))
  (let ((let17 (ff.mul let13 let13)))
  (let ((let18 (= let17 let13)))
  (let ((let19 (ff.mul let14 let14)))
  (let ((let20 (= let19 let14)))
  (let ((let21 (and let20 let18 let16 let12)))
  (let ((let22 (ite let0 let4 let7)))
  (let ((let23 (= let13 let22)))
  (let ((let24 (ite let1 let4 let7)))
  (let ((let25 (= let14 let24)))
  (let ((let26 (and let25 let23)))
  (let ((let27 (and let26 let21)))
  (let ((let28 (=> let27 let10)))
  (let ((let29 (not let28)))
  let29
))))))))))))))))))))))))))))))
)
(check-sat)
